
;this file is automatically generated: Tue Dec 21 15:00:28 GMT 2021

;declarations generated

(declare-fun Gender ( Int) Int)
(declare-fun oclExcludes ( Int Int) Bool)
(declare-fun Cardinality ( Int) Int)
(declare-fun type_d313d6f2_6a7f_4319_8e5e_fc1ce091df03_Student ( Int) Bool)
(declare-fun obj_be3cebf3_7801_4bc3_86be_1d8d6d1ee794 ( Int) Int)
(declare-fun type_d313d6f2_6a7f_4319_8e5e_fc1ce091df03_Person ( Int) Bool)
(declare-fun rel_8630341a_20e1_4dfd_82cd_a6baf39ff2e9_choose ( Int Int) Bool)
(declare-fun type_d313d6f2_6a7f_4319_8e5e_fc1ce091df03_Module ( Int) Bool)
(declare-fun oclSelect ( Int Bool) Int)
(declare-fun k5879f555_633d_4d02_8f0f_ddbcc9548e9b () Int)
(declare-fun container_ ( Int) Int)
(declare-fun kc353804d_a4cc_43df_a89e_584890f3913d () Int)
(declare-fun type_d313d6f2_6a7f_4319_8e5e_fc1ce091df03_Child ( Int) Bool)
(declare-fun oclIncludes ( Int Int) Bool)
(declare-fun ObjAt ( Int Int) Int)

;formula(s) generated
(assert (forall ((x Int)(y Int)) (=> (and ( rel_8630341a_20e1_4dfd_82cd_a6baf39ff2e9_choose ( obj_be3cebf3_7801_4bc3_86be_1d8d6d1ee794 x )   ( obj_be3cebf3_7801_4bc3_86be_1d8d6d1ee794 y )  )  (and (and ( type_d313d6f2_6a7f_4319_8e5e_fc1ce091df03_Student x )  ( type_d313d6f2_6a7f_4319_8e5e_fc1ce091df03_Person x ) ) ( type_d313d6f2_6a7f_4319_8e5e_fc1ce091df03_Module y ) )) (or (or (or (= (* ( Cardinality ( container_ x )  )  0) (* ( Cardinality ( container_ y )  )  1)) (and (= (* ( Cardinality ( container_ y )  )  1) (* ( Cardinality ( container_ x )  )  k5879f555_633d_4d02_8f0f_ddbcc9548e9b)) (>= k5879f555_633d_4d02_8f0f_ddbcc9548e9b 0))) (= (* ( Cardinality ( container_ x )  )  0) (* ( Cardinality ( container_ y )  )  1))) (and (= (* ( Cardinality ( container_ y )  )  1) (* ( Cardinality ( container_ x )  )  kc353804d_a4cc_43df_a89e_584890f3913d)) (>= kc353804d_a4cc_43df_a89e_584890f3913d 0))))))
(assert (! (forall ((s Int)) (=> (and ( type_d313d6f2_6a7f_4319_8e5e_fc1ce091df03_Student s )  ( type_d313d6f2_6a7f_4319_8e5e_fc1ce091df03_Person s ) ) (exists ((v Int)) (and ( type_d313d6f2_6a7f_4319_8e5e_fc1ce091df03_Module v )  ( rel_8630341a_20e1_4dfd_82cd_a6baf39ff2e9_choose ( obj_be3cebf3_7801_4bc3_86be_1d8d6d1ee794 s )   ( obj_be3cebf3_7801_4bc3_86be_1d8d6d1ee794 v )  ) )))):named l0))
(assert (! (exists ((o Int)) ( type_d313d6f2_6a7f_4319_8e5e_fc1ce091df03_Child ( obj_be3cebf3_7801_4bc3_86be_1d8d6d1ee794 o )  ) ):named c0))
(assert (! (exists ((o Int)) ( type_d313d6f2_6a7f_4319_8e5e_fc1ce091df03_Module ( obj_be3cebf3_7801_4bc3_86be_1d8d6d1ee794 o )  ) ):named c1))
(assert (! (exists ((o Int)) ( type_d313d6f2_6a7f_4319_8e5e_fc1ce091df03_Student ( obj_be3cebf3_7801_4bc3_86be_1d8d6d1ee794 o )  ) ):named c3))

 ;end of formula 